Minimize
  obj: x0 + x1 + x2 + x3 + x4 + x5 + x6 + x7 + x8 + x9

Subject To
  c0: x0 + x1 + x2 + x4 + x8 = 42
  c1: x0 + x2 + x3 + x7 = 25
  c2: x4 + x8 = 23
  c3: x1 + x2 + x4 + x6 + x7 = 31
  c4: x3 + x6 = 24
  c5: x0 + x1 + x2 + x4 = 23
  c6: x1 + x2 + x3 + x4 + x5 + x6 + x7 + x8 + x9 = 84
  c7: x0 + x1 + x2 + x4 + x6 + x9 = 36
  c8: x0 + x1 + x2 + x7 = 23

Bounds
  x0 >= 0
  x1 >= 0
  x2 >= 0
  x3 >= 0
  x4 >= 0
  x5 >= 0
  x6 >= 0
  x7 >= 0
  x8 >= 0
  x9 >= 0

Generals
  x0 x1 x2 x3 x4 x5 x6 x7 x8 x9

End
